set VV := 0 1 2 3 4 5 6 7 8 9 10 11 12 13 14 15 16 17 18 19 20 21 22 23 24 25 26 27 28 29 30 31 32 33 34 35 36 37 ;
set VS := 0 1 2 3 4 5 6 7 8 9 10 11 12 13 14 15 16 17 18 19 20 21 22 23 24 25 26 27 28 29 30 31 32 33 34 35 36 37 38 39 40 41 42 43 44 45 46 47 48 49 50 51 52 53 54 55 56 57 58 59 60 61 62 63 64 65 66 67 68 69 70 71 72 73 74 75 76 77 78 79 80 ;
param cv := 
0 18
1 23
2 15
3 24
4 18
5 16
6 20
7 14
8 24
9 11
10 22
11 20
12 23
13 11
14 13
15 16
16 24
17 24
18 18
19 21
20 16
21 22
22 24
23 20
24 16
25 22
26 10
27 19
28 25
29 23
30 13
31 20
32 25
33 12
34 22
35 18
36 23
37 17
;
param cs := 
0 31
1 40
2 25
3 31
4 37
5 38
6 30
7 40
8 32
9 26
10 40
11 30
12 37
13 27
14 39
15 30
16 23
17 27
18 34
19 40
20 32
21 33
22 32
23 30
24 40
25 26
26 21
27 37
28 31
29 20
30 31
31 32
32 21
33 24
34 40
35 34
36 37
37 32
38 32
39 27
40 38
41 26
42 31
43 35
44 29
45 25
46 38
47 26
48 29
49 30
50 33
51 31
52 38
53 38
54 21
55 35
56 28
57 37
58 39
59 37
60 25
61 31
62 39
63 30
64 29
65 35
66 25
67 22
68 40
69 30
70 30
71 22
72 29
73 28
74 39
75 35
76 22
77 20
78 31
79 35
80 22
;
param bv:	 0 1 2 3 4 5 6 7 8 9 10 11 12 13 14 15 16 17 18 19 20 21 22 23 24 25 26 27 28 29 30 31 32 33 34 35 36 37 := 
		0 0 0 0 0 0 0 0 0 0 0 0 14 15 0 0 0 0 0 0 0 0 0 0 0 0 0 0 0 0 0 0 0 0 0 0 0 0 0 
		1 0 0 0 0 0 0 0 0 0 0 0 25 0 0 0 23 15 0 0 17 0 0 0 0 24 19 16 10 0 0 0 13 0 19 0 0 0 0 
		2 0 0 0 23 0 0 0 0 0 0 0 0 0 0 0 16 0 0 0 0 0 0 0 0 0 0 0 0 0 0 0 0 0 0 0 20 0 0 
		3 0 0 0 0 0 0 20 0 0 0 0 0 0 0 0 0 0 0 21 0 0 23 0 0 0 0 0 10 0 0 0 0 0 0 0 0 0 0 
		4 0 0 0 0 0 0 0 0 0 0 0 0 0 22 25 0 0 0 0 17 0 0 0 0 10 0 0 0 0 0 0 0 16 24 0 0 0 0 
		5 0 0 0 0 0 0 0 0 0 0 0 0 0 0 0 0 0 0 0 0 0 0 0 0 12 0 0 0 0 0 0 0 0 0 0 0 0 15 
		6 0 0 0 0 0 0 0 0 0 0 11 0 0 0 13 0 0 0 0 0 24 0 0 0 0 14 24 0 0 0 15 0 0 0 0 0 0 17 
		7 0 0 0 0 0 0 0 0 0 0 0 0 0 0 0 0 0 0 0 0 0 0 0 0 0 25 0 13 0 0 0 0 0 0 0 0 0 0 
		8 0 0 0 0 0 0 0 0 0 0 0 10 0 11 13 0 0 0 23 0 0 0 0 0 19 0 0 0 0 0 0 18 0 20 0 0 0 0 
		9 0 0 0 0 0 0 0 0 0 0 0 0 0 0 0 0 0 0 0 0 0 0 0 0 0 0 0 0 0 0 0 0 0 0 19 0 0 0 
		10 0 0 0 0 0 0 0 0 0 0 0 0 0 0 0 16 0 0 0 0 18 0 0 21 0 0 0 0 0 0 0 0 0 0 0 0 14 0 
		11 0 0 0 0 0 0 0 0 0 0 0 0 15 0 0 0 0 0 0 0 0 0 0 0 14 17 0 0 0 11 0 0 0 0 0 0 0 0 
		12 0 0 0 0 0 0 0 0 0 0 0 0 0 0 0 0 0 0 24 0 0 0 0 0 0 0 0 0 0 0 0 0 0 0 0 0 0 25 
		13 0 0 0 0 0 0 0 0 0 0 0 0 0 0 0 0 0 22 20 0 20 0 0 0 0 10 0 0 0 0 22 0 0 0 0 0 0 0 
		14 0 0 0 0 0 0 0 0 0 0 0 0 0 0 0 10 0 0 0 22 0 0 0 17 0 25 0 0 0 0 0 11 0 19 0 0 0 0 
		15 0 0 0 0 0 0 0 0 0 0 0 0 0 0 0 0 24 0 0 0 0 0 0 0 0 0 23 0 0 0 0 0 0 0 0 20 0 0 
		16 0 0 0 0 0 0 0 0 0 0 0 0 0 0 0 0 0 0 14 0 0 0 0 0 0 0 0 0 0 0 0 0 0 0 0 0 0 0 
		17 0 0 0 0 0 0 0 0 0 0 0 0 0 0 0 0 0 0 0 0 0 0 0 0 18 0 18 0 0 0 20 15 23 0 0 24 0 0 
		18 0 0 0 0 0 0 0 0 0 0 0 0 0 0 0 0 0 0 0 0 0 0 0 0 0 0 0 0 0 0 0 0 0 0 19 12 0 0 
		19 0 0 0 0 0 0 0 0 0 0 0 0 0 0 0 0 0 0 0 0 0 0 0 0 0 0 16 0 0 0 0 0 0 0 0 0 0 0 
		20 0 0 0 0 0 0 0 0 0 0 0 0 0 0 0 0 0 0 0 0 0 0 0 0 0 0 0 0 0 0 17 0 0 0 0 0 0 0 
		21 0 0 0 0 0 0 0 0 0 0 0 0 0 0 0 0 0 0 0 0 0 0 0 10 0 0 0 0 0 0 0 0 0 0 0 0 14 0 
		22 0 0 0 0 0 0 0 0 0 0 0 0 0 0 0 0 0 0 0 0 0 0 0 0 0 0 0 0 0 0 0 0 0 19 0 0 20 0 
		23 0 0 0 0 0 0 0 0 0 0 0 0 0 0 0 0 0 0 0 0 0 0 0 0 16 25 0 0 0 0 0 25 0 0 0 0 0 0 
		24 0 0 0 0 0 0 0 0 0 0 0 0 0 0 0 0 0 0 0 0 0 0 0 0 0 0 20 0 0 0 0 17 12 15 0 0 0 0 
		25 0 0 0 0 0 0 0 0 0 0 0 0 0 0 0 0 0 0 0 0 0 0 0 0 0 0 0 0 0 0 0 17 11 0 0 0 0 0 
		26 0 0 0 0 0 0 0 0 0 0 0 0 0 0 0 0 0 0 0 0 0 0 0 0 0 0 0 0 0 0 0 20 0 0 0 0 0 15 
		27 0 0 0 0 0 0 0 0 0 0 0 0 0 0 0 0 0 0 0 0 0 0 0 0 0 0 0 0 0 0 0 0 0 0 0 0 0 0 
		28 0 0 0 0 0 0 0 0 0 0 0 0 0 0 0 0 0 0 0 0 0 0 0 0 0 0 0 0 0 0 0 0 0 0 0 0 22 19 
		29 0 0 0 0 0 0 0 0 0 0 0 0 0 0 0 0 0 0 0 0 0 0 0 0 0 0 0 0 0 0 0 0 0 0 0 0 0 0 
		30 0 0 0 0 0 0 0 0 0 0 0 0 0 0 0 0 0 0 0 0 0 0 0 0 0 0 0 0 0 0 0 23 0 0 0 0 0 0 
		31 0 0 0 0 0 0 0 0 0 0 0 0 0 0 0 0 0 0 0 0 0 0 0 0 0 0 0 0 0 0 0 0 0 0 0 0 0 0 
		32 0 0 0 0 0 0 0 0 0 0 0 0 0 0 0 0 0 0 0 0 0 0 0 0 0 0 0 0 0 0 0 0 0 0 0 0 0 0 
		33 0 0 0 0 0 0 0 0 0 0 0 0 0 0 0 0 0 0 0 0 0 0 0 0 0 0 0 0 0 0 0 0 0 0 10 10 0 0 
		34 0 0 0 0 0 0 0 0 0 0 0 0 0 0 0 0 0 0 0 0 0 0 0 0 0 0 0 0 0 0 0 0 0 0 0 0 0 0 
		35 0 0 0 0 0 0 0 0 0 0 0 0 0 0 0 0 0 0 0 0 0 0 0 0 0 0 0 0 0 0 0 0 0 0 0 0 0 0 
		36 0 0 0 0 0 0 0 0 0 0 0 0 0 0 0 0 0 0 0 0 0 0 0 0 0 0 0 0 0 0 0 0 0 0 0 0 0 21 
		37 0 0 0 0 0 0 0 0 0 0 0 0 0 0 0 0 0 0 0 0 0 0 0 0 0 0 0 0 0 0 0 0 0 0 0 0 0 0 
;
param bs:	 0 1 2 3 4 5 6 7 8 9 10 11 12 13 14 15 16 17 18 19 20 21 22 23 24 25 26 27 28 29 30 31 32 33 34 35 36 37 38 39 40 41 42 43 44 45 46 47 48 49 50 51 52 53 54 55 56 57 58 59 60 61 62 63 64 65 66 67 68 69 70 71 72 73 74 75 76 77 78 79 80 := 
		0 0 0 0 0 0 36 36 0 0 0 0 0 0 0 0 0 0 0 25 0 0 0 0 0 0 0 28 0 27 0 0 0 0 0 20 0 0 0 21 0 0 0 0 0 0 0 0 0 0 32 0 0 0 0 0 0 40 0 0 0 0 0 0 0 0 0 0 0 0 0 0 0 0 27 0 0 36 0 0 0 36 
		1 0 0 20 0 29 23 0 0 0 0 0 0 0 0 0 0 0 0 0 0 0 0 0 0 0 25 0 0 0 0 39 0 0 0 26 0 0 0 0 0 0 0 0 0 0 0 0 0 34 0 38 0 0 0 0 0 0 0 0 0 23 0 24 0 0 0 0 0 0 0 0 0 0 0 0 0 40 0 0 39 27 
		2 0 20 0 0 0 0 0 0 0 0 0 0 0 32 0 0 34 0 37 0 0 0 0 0 28 0 0 34 0 32 0 0 0 0 0 0 34 0 37 26 0 0 0 33 0 22 0 0 33 0 0 0 0 0 0 0 0 0 0 0 26 0 0 0 0 0 29 0 0 24 0 0 0 36 0 0 0 0 0 0 0 
		3 0 0 0 0 0 0 0 24 0 0 34 0 0 0 24 0 0 0 0 0 24 0 22 0 0 0 0 0 0 0 0 0 0 0 0 0 0 37 22 0 0 0 0 0 0 0 0 0 0 0 0 34 0 23 0 0 0 0 0 0 0 0 25 0 0 0 0 0 0 34 0 0 0 29 0 0 0 0 0 0 0 
		4 0 29 0 0 0 25 0 0 0 0 0 0 0 0 0 0 39 0 22 0 27 0 0 0 0 0 0 0 0 0 0 0 24 0 0 0 0 0 0 30 0 0 0 0 0 0 0 0 0 0 0 0 0 0 40 0 0 0 0 39 0 0 0 0 37 0 0 21 0 0 0 0 0 0 0 0 23 35 26 0 0 
		5 36 23 0 0 25 0 0 0 0 0 0 0 0 0 0 0 0 0 0 0 0 32 0 36 0 0 40 0 0 0 0 0 0 0 0 0 0 0 0 0 0 0 35 0 0 0 0 0 0 0 0 0 0 0 0 0 0 0 0 0 0 0 0 0 0 0 0 0 0 0 26 39 0 0 0 0 38 0 37 25 0 
		6 36 0 0 0 0 0 0 0 0 22 0 0 0 0 0 0 0 0 0 0 0 0 0 0 0 0 0 0 0 0 0 0 0 0 0 0 0 0 0 0 0 24 0 0 0 0 0 0 0 21 0 0 0 0 0 0 0 0 0 0 37 0 0 0 0 0 0 0 0 0 0 0 0 0 38 0 39 0 0 0 0 
		7 0 0 0 24 0 0 0 0 0 0 0 36 20 0 0 0 0 0 0 0 0 0 0 0 0 0 0 0 40 0 0 0 0 0 0 0 0 0 0 30 0 0 0 0 0 0 27 21 0 0 0 0 0 0 0 0 0 0 23 0 0 0 0 0 0 0 0 0 0 0 0 0 0 0 0 37 0 0 0 0 0 
		8 0 0 0 0 0 0 0 0 0 0 0 0 0 0 0 0 0 0 0 0 0 26 0 0 0 0 30 0 0 23 0 0 0 0 0 0 0 31 0 0 0 29 0 0 0 0 0 0 0 0 0 0 0 0 0 0 0 0 0 0 0 0 0 0 0 0 36 0 0 0 0 0 0 0 0 0 0 29 0 40 0 
		9 0 0 0 0 0 0 22 0 0 0 0 0 0 0 0 0 0 0 0 0 0 0 0 25 0 0 0 0 0 0 0 37 0 0 0 0 0 0 0 0 0 0 0 24 0 0 0 0 0 31 0 35 0 0 0 0 0 0 0 0 26 0 0 0 0 0 0 33 0 0 0 0 0 0 0 0 0 0 20 0 0 
		10 0 0 0 34 0 0 0 0 0 0 0 0 26 0 0 0 0 0 0 0 0 0 0 0 0 0 22 0 0 0 0 0 0 0 0 0 0 0 0 0 0 20 0 0 0 0 0 0 0 0 0 0 0 23 0 0 0 0 0 0 0 0 0 0 0 0 0 21 28 24 0 0 0 40 0 0 0 0 0 0 0 
		11 0 0 0 0 0 0 0 36 0 0 0 0 30 0 0 0 0 0 0 0 0 0 0 0 0 0 0 0 31 0 0 0 0 35 0 0 0 0 0 0 0 0 0 0 0 0 33 0 0 0 0 0 0 0 0 0 0 0 0 30 0 0 35 0 0 28 0 0 0 0 0 0 0 24 0 0 0 31 0 0 0 
		12 0 0 0 0 0 0 0 20 0 0 26 30 0 0 0 0 0 0 0 0 0 0 0 35 0 0 0 0 35 0 0 0 0 20 0 0 0 0 35 0 0 36 38 21 0 0 0 0 37 0 0 0 0 31 0 33 0 0 0 0 30 0 0 0 0 0 23 39 0 0 0 0 0 0 0 29 0 0 0 0 0 
		13 0 0 32 0 0 0 0 0 0 0 0 0 0 0 0 0 0 0 0 0 0 0 0 0 0 0 0 36 0 0 0 0 0 0 0 0 0 0 0 0 0 0 0 0 0 0 0 0 0 0 0 39 0 0 21 0 0 0 0 0 0 0 0 0 0 0 0 0 0 0 0 0 0 22 0 0 0 0 0 0 31 
		14 0 0 0 24 0 0 0 0 0 0 0 0 0 0 0 0 0 0 0 0 0 0 0 0 0 0 0 0 0 0 0 31 0 0 0 0 0 24 0 0 0 0 0 0 0 0 0 0 0 0 0 0 0 0 0 0 0 0 0 0 22 0 40 0 23 0 21 0 0 0 0 0 0 0 0 0 0 37 0 0 0 
		15 0 0 0 0 0 0 0 0 0 0 0 0 0 0 0 0 0 0 0 0 0 0 0 0 0 0 0 0 37 0 0 0 0 0 0 0 0 0 0 0 0 37 0 0 0 21 0 0 20 0 0 0 0 0 0 0 0 0 0 0 0 0 0 0 0 0 21 0 0 0 0 0 0 0 0 0 0 0 0 0 0 
		16 0 0 34 0 39 0 0 0 0 0 0 0 0 0 0 0 0 0 0 21 0 0 0 0 0 0 0 0 0 35 0 0 0 0 0 0 25 0 0 21 0 0 0 0 0 30 0 0 0 0 0 0 0 0 0 0 0 0 0 0 0 0 21 0 0 0 0 0 0 0 0 0 0 0 0 0 0 0 0 0 26 
		17 0 0 0 0 0 0 0 0 0 0 0 0 0 0 0 0 0 0 0 0 0 0 0 0 0 0 0 0 0 0 0 0 0 0 0 0 0 0 0 0 0 0 0 0 0 0 0 0 0 0 0 0 0 22 0 0 0 0 0 0 0 0 0 0 0 0 0 0 0 0 0 0 0 0 0 0 0 0 0 0 0 
		18 25 0 37 0 22 0 0 0 0 0 0 0 0 0 0 0 0 0 0 0 0 37 0 0 0 0 0 0 0 0 32 0 0 0 0 0 0 33 0 0 0 0 0 0 0 0 0 28 31 0 27 0 0 0 0 0 0 0 36 0 0 0 0 0 0 0 0 0 0 0 0 0 0 0 21 0 0 0 0 35 0 
		19 0 0 0 0 0 0 0 0 0 0 0 0 0 0 0 0 21 0 0 0 0 34 40 0 26 0 0 0 0 0 0 0 0 0 0 0 0 0 0 0 37 0 0 0 0 21 0 0 0 0 0 0 0 0 33 0 0 0 29 0 0 38 0 0 31 29 29 0 0 0 0 0 0 25 0 0 0 0 0 0 24 
		20 0 0 0 24 27 0 0 0 0 0 0 0 0 0 0 0 0 0 0 0 0 0 0 0 37 0 0 0 0 26 0 0 0 0 0 0 0 22 0 0 0 0 0 0 0 0 0 0 0 0 0 0 23 0 0 0 0 0 0 0 0 0 0 0 0 0 0 0 35 0 0 0 0 0 25 0 0 0 0 0 0 
		21 0 0 0 0 0 32 0 0 26 0 0 0 0 0 0 0 0 0 37 34 0 0 0 0 0 0 0 0 0 32 0 0 0 0 0 0 0 37 0 0 0 0 0 0 0 0 0 0 39 0 0 0 0 0 0 0 0 0 0 0 0 0 0 0 0 0 0 0 0 0 0 0 37 0 0 0 0 0 0 20 29 
		22 0 0 0 22 0 0 0 0 0 0 0 0 0 0 0 0 0 0 0 40 0 0 0 0 28 0 0 0 0 24 0 0 0 0 0 0 0 23 0 27 0 0 31 0 0 0 0 0 0 0 0 0 0 0 0 0 0 0 0 0 0 33 0 0 0 31 29 0 38 0 0 0 0 0 0 23 28 0 0 27 0 
		23 0 0 0 0 0 36 0 0 0 25 0 0 35 0 0 0 0 0 0 0 0 0 0 0 0 26 0 0 20 0 0 0 0 0 0 0 0 0 24 0 27 0 0 0 0 0 0 26 0 0 0 0 0 25 0 24 0 0 0 34 30 0 0 0 0 0 0 0 0 0 0 0 0 0 0 0 0 0 27 0 0 
		24 0 0 28 0 0 0 0 0 0 0 0 0 0 0 0 0 0 0 0 26 37 0 28 0 0 0 0 0 0 39 0 0 0 24 0 0 40 0 0 0 0 0 0 0 0 0 0 0 0 0 0 0 0 0 0 0 0 0 0 39 0 0 0 0 0 0 0 0 0 0 0 0 0 0 0 0 0 28 0 0 0 
		25 0 25 0 0 0 0 0 0 0 0 0 0 0 0 0 0 0 0 0 0 0 0 0 26 0 0 0 0 0 0 0 0 0 0 0 0 0 0 0 22 0 0 0 0 0 0 40 0 0 0 0 0 0 0 0 0 0 0 0 0 0 0 0 0 0 0 0 0 0 0 0 0 0 0 0 0 0 0 0 0 0 
		26 28 0 0 0 0 40 0 0 30 0 22 0 0 0 0 0 0 0 0 0 0 0 0 0 0 0 0 0 0 0 0 0 0 0 0 33 40 0 0 0 0 0 0 0 0 0 0 0 0 0 0 32 0 0 0 21 0 0 0 0 0 0 0 0 0 0 0 0 0 34 0 0 0 39 0 0 0 0 0 0 37 
		27 0 0 34 0 0 0 0 0 0 0 0 0 0 36 0 0 0 0 0 0 0 0 0 0 0 0 0 0 0 0 0 0 0 0 0 0 0 0 0 0 0 0 0 0 0 0 0 0 0 0 0 0 0 0 0 0 0 0 0 0 0 0 0 0 0 0 0 0 0 0 0 0 0 0 0 0 25 0 0 0 0 
		28 27 0 0 0 0 0 0 40 0 0 0 31 35 0 0 37 0 0 0 0 0 0 0 20 0 0 0 0 0 0 0 0 0 40 0 0 0 0 0 0 0 0 0 0 0 0 0 0 0 28 0 0 0 0 0 0 0 0 0 40 0 0 31 0 0 0 0 0 0 0 0 0 0 25 0 0 0 0 0 21 0 
		29 0 0 32 0 0 0 0 0 23 0 0 0 0 0 0 0 35 0 0 0 26 32 24 0 39 0 0 0 0 0 22 0 0 0 0 0 0 0 0 38 0 23 0 0 0 0 0 0 0 0 0 0 0 0 24 38 0 0 0 0 0 21 0 40 0 26 0 0 0 0 0 0 38 0 0 0 0 0 0 0 0 
		30 0 39 0 0 0 0 0 0 0 0 0 0 0 0 0 0 0 0 32 0 0 0 0 0 0 0 0 0 0 22 0 0 0 0 35 0 0 0 0 0 0 0 0 25 0 0 0 0 0 0 0 0 0 0 29 0 0 0 0 0 0 0 0 0 0 23 0 0 0 0 0 0 0 0 0 0 20 0 0 0 37 
		31 0 0 0 0 0 0 0 0 0 37 0 0 0 0 31 0 0 0 0 0 0 0 0 0 0 0 0 0 0 0 0 0 0 26 0 0 40 0 0 0 0 0 0 0 0 0 0 27 0 0 31 0 33 0 0 0 0 0 0 0 0 0 0 0 0 0 0 0 0 0 0 0 0 0 0 0 0 36 0 0 0 
		32 0 0 0 0 24 0 0 0 0 0 0 0 0 0 0 0 0 0 0 0 0 0 0 0 0 0 0 0 0 0 0 0 0 27 0 0 0 0 0 0 0 0 0 0 0 0 0 0 0 0 0 35 0 0 0 0 0 0 0 0 23 0 0 0 0 0 0 0 0 0 0 35 0 0 0 0 37 0 34 0 0 
		33 0 0 0 0 0 0 0 0 0 0 0 35 20 0 0 0 0 0 0 0 0 0 0 0 24 0 0 0 40 0 0 26 27 0 0 33 0 0 0 39 0 0 29 0 0 0 0 21 33 0 0 0 0 0 0 0 0 0 0 29 25 0 0 0 0 0 0 0 0 0 0 39 0 0 0 0 0 0 0 0 0 
		34 20 26 0 0 0 0 0 0 0 0 0 0 0 0 0 0 0 0 0 0 0 0 0 0 0 0 0 0 0 0 35 0 0 0 0 0 0 0 0 0 0 0 0 0 0 0 0 0 0 0 0 0 0 0 29 0 0 0 0 22 0 0 0 0 0 0 0 0 0 0 0 0 0 0 38 0 0 0 0 0 0 
		35 0 0 0 0 0 0 0 0 0 0 0 0 0 0 0 0 0 0 0 0 0 0 0 0 0 0 33 0 0 0 0 0 0 33 0 0 0 0 0 0 0 0 0 36 0 0 37 0 0 0 0 0 0 0 0 0 0 0 0 0 38 33 0 34 0 0 0 0 0 36 0 28 0 21 0 20 0 0 0 0 37 
		36 0 0 34 0 0 0 0 0 0 0 0 0 0 0 0 0 25 0 0 0 0 0 0 0 40 0 40 0 0 0 0 40 0 0 0 0 0 0 0 0 0 0 0 0 0 20 29 0 0 0 0 0 0 0 0 0 0 28 0 34 0 0 0 0 35 0 0 0 39 0 0 0 0 0 0 0 0 0 0 0 0 
		37 0 0 0 37 0 0 0 0 31 0 0 0 0 0 24 0 0 0 33 0 22 37 23 0 0 0 0 0 0 0 0 0 0 0 0 0 0 0 0 0 0 0 25 0 0 0 0 0 0 0 0 0 0 0 0 0 0 0 0 20 0 39 0 0 0 0 0 0 34 20 0 0 0 0 0 0 0 0 0 0 0 
		38 21 0 37 22 0 0 0 0 0 0 0 0 35 0 0 0 0 0 0 0 0 0 0 24 0 0 0 0 0 0 0 0 0 0 0 0 0 0 0 0 0 0 24 0 0 0 24 0 0 0 0 0 0 0 36 0 0 0 0 0 0 0 0 0 37 0 0 0 0 0 0 0 0 0 0 0 0 0 0 0 0 
		39 0 0 26 0 30 0 0 30 0 0 0 0 0 0 0 0 21 0 0 0 0 0 27 0 0 22 0 0 0 38 0 0 0 39 0 0 0 0 0 0 0 31 34 0 0 0 30 0 26 0 0 0 0 0 0 0 0 0 0 28 0 0 0 27 0 0 0 0 0 0 0 0 0 0 0 28 0 0 0 21 0 
		40 0 0 0 0 0 0 0 0 0 0 0 0 0 0 0 0 0 0 0 37 0 0 0 27 0 0 0 0 0 0 0 0 0 0 0 0 0 0 0 0 0 0 31 0 30 0 0 0 0 0 33 0 0 0 0 0 0 0 0 0 0 0 0 0 0 0 0 0 0 0 0 0 0 0 0 0 0 0 0 0 0 
		41 0 0 0 0 0 0 24 0 29 0 20 0 36 0 0 37 0 0 0 0 0 0 0 0 0 0 0 0 0 23 0 0 0 0 0 0 0 0 0 31 0 0 0 0 0 0 0 0 0 0 39 0 0 23 0 0 0 0 0 0 0 0 0 0 0 0 0 0 29 0 0 0 0 23 34 0 0 0 0 0 0 
		42 0 0 0 0 0 35 0 0 0 0 0 0 38 0 0 0 0 0 0 0 0 0 31 0 0 0 0 0 0 0 0 0 0 29 0 0 0 25 24 34 31 0 0 0 0 0 0 0 0 0 0 0 0 0 0 29 0 0 22 0 0 0 0 0 0 0 31 0 0 0 0 0 0 0 0 0 0 0 0 0 0 
		43 0 0 33 0 0 0 0 0 0 24 0 0 21 0 0 0 0 0 0 0 0 0 0 0 0 0 0 0 0 0 25 0 0 0 0 36 0 0 0 0 0 0 0 0 0 0 28 0 0 0 0 0 0 0 0 35 0 0 0 0 0 0 28 0 0 0 0 0 0 0 0 0 0 0 0 0 0 0 0 0 0 
		44 0 0 0 0 0 0 0 0 0 0 0 0 0 0 0 0 0 0 0 0 0 0 0 0 0 0 0 0 0 0 0 0 0 0 0 0 0 0 0 0 30 0 0 0 0 0 0 38 0 0 0 0 0 23 0 0 0 0 0 0 0 40 0 0 0 0 0 0 0 0 0 0 0 0 0 0 0 0 25 0 0 
		45 0 0 22 0 0 0 0 0 0 0 0 0 0 0 0 21 30 0 0 21 0 0 0 0 0 0 0 0 0 0 0 0 0 0 0 0 20 0 0 0 0 0 0 0 0 0 0 0 0 0 0 0 0 0 0 38 29 0 23 0 0 0 0 0 0 25 0 0 0 0 0 0 0 0 0 0 0 0 0 0 0 
		46 0 0 0 0 0 0 0 27 0 0 0 33 0 0 0 0 0 0 0 0 0 0 0 0 0 40 0 0 0 0 0 0 0 0 0 37 29 0 24 30 0 0 0 28 0 0 0 0 0 0 0 0 0 40 0 0 0 0 0 0 20 0 0 0 0 0 0 0 32 0 0 0 0 0 0 31 0 0 0 0 0 
		47 0 0 0 0 0 0 0 21 0 0 0 0 0 0 0 0 0 0 28 0 0 0 0 26 0 0 0 0 0 0 0 27 0 21 0 0 0 0 0 0 0 0 0 0 38 0 0 0 0 0 0 0 0 0 0 0 0 0 0 0 0 0 0 0 0 21 32 0 29 0 0 0 0 0 0 0 0 0 0 32 0 
		48 0 34 33 0 0 0 0 0 0 0 0 0 37 0 0 20 0 0 31 0 0 39 0 0 0 0 0 0 0 0 0 0 0 33 0 0 0 0 0 26 0 0 0 0 0 0 0 0 0 23 0 27 0 0 0 0 0 0 0 0 0 0 40 0 0 39 0 0 0 0 0 0 38 0 0 0 0 0 0 0 0 
		49 32 0 0 0 0 0 21 0 0 31 0 0 0 0 0 0 0 0 0 0 0 0 0 0 0 0 0 0 28 0 0 0 0 0 0 0 0 0 0 0 0 0 0 0 0 0 0 0 23 0 0 0 0 20 0 24 0 0 0 0 0 0 0 28 0 30 0 0 0 37 0 0 0 0 0 0 0 0 0 0 0 
		50 0 38 0 0 0 0 0 0 0 0 0 0 0 0 0 0 0 0 27 0 0 0 0 0 0 0 0 0 0 0 0 31 0 0 0 0 0 0 0 0 33 39 0 0 0 0 0 0 0 0 0 0 0 0 0 0 0 0 0 0 0 0 0 0 0 34 0 0 0 39 0 0 0 0 0 0 0 0 0 0 0 
		51 0 0 0 34 0 0 0 0 0 35 0 0 0 39 0 0 0 0 0 0 0 0 0 0 0 0 32 0 0 0 0 0 35 0 0 0 0 0 0 0 0 0 0 0 0 0 0 0 27 0 0 0 0 23 0 0 0 0 0 0 35 0 0 0 0 0 0 0 0 0 0 0 0 0 0 0 0 0 0 27 0 
		52 0 0 0 0 0 0 0 0 0 0 0 0 0 0 0 0 0 0 0 0 23 0 0 0 0 0 0 0 0 0 0 33 0 0 0 0 0 0 0 0 0 0 0 0 0 0 0 0 0 0 0 0 0 39 0 0 0 0 0 0 0 0 0 0 0 0 0 0 0 25 0 0 0 0 0 24 0 0 0 0 0 
		53 0 0 0 23 0 0 0 0 0 0 23 0 31 0 0 0 0 22 0 0 0 0 0 25 0 0 0 0 0 0 0 0 0 0 0 0 0 0 0 0 0 23 0 0 23 0 40 0 0 20 0 23 39 0 0 0 0 0 0 0 0 0 0 0 0 0 38 0 0 0 0 0 0 38 0 0 0 0 0 0 0 
		54 0 0 0 0 40 0 0 0 0 0 0 0 0 21 0 0 0 0 0 33 0 0 0 0 0 0 0 0 0 24 29 0 0 0 29 0 0 0 36 0 0 0 0 0 0 0 0 0 0 0 0 0 0 0 0 0 0 0 0 0 0 0 0 0 0 0 36 0 0 0 0 0 0 0 40 0 0 0 23 0 0 
		55 0 0 0 0 0 0 0 0 0 0 0 0 33 0 0 0 0 0 0 0 0 0 0 24 0 0 21 0 0 38 0 0 0 0 0 0 0 0 0 0 0 0 29 35 0 38 0 0 0 24 0 0 0 0 0 0 0 0 0 0 0 0 0 0 0 0 0 0 0 0 23 0 0 0 0 0 0 0 0 40 0 
		56 40 0 0 0 0 0 0 0 0 0 0 0 0 0 0 0 0 0 0 0 0 0 0 0 0 0 0 0 0 0 0 0 0 0 0 0 0 0 0 0 0 0 0 0 0 29 0 0 0 0 0 0 0 0 0 0 0 0 0 0 0 0 0 33 0 0 0 0 0 0 0 0 0 0 0 0 0 0 25 0 0 
		57 0 0 0 0 0 0 0 0 0 0 0 0 0 0 0 0 0 0 0 0 0 0 0 0 0 0 0 0 0 0 0 0 0 0 0 0 28 0 0 0 0 0 0 0 0 0 0 0 0 0 0 0 0 0 0 0 0 0 0 0 0 0 0 0 20 0 0 0 0 0 0 0 0 0 0 0 0 0 0 0 0 
		58 0 0 0 0 0 0 0 23 0 0 0 0 0 0 0 0 0 0 36 29 0 0 0 0 0 0 0 0 0 0 0 0 0 0 0 0 0 0 0 0 0 0 22 0 0 23 0 0 0 0 0 0 0 0 0 0 0 0 0 0 39 0 0 0 0 0 25 0 0 0 0 0 35 0 0 0 0 0 0 29 0 
		59 0 0 0 0 39 0 0 0 0 0 0 30 0 0 0 0 0 0 0 0 0 0 0 34 39 0 0 0 40 0 0 0 0 29 22 0 34 20 0 28 0 0 0 0 0 0 0 0 0 0 0 0 0 0 0 0 0 0 0 0 0 0 0 0 0 0 0 0 0 0 0 0 0 21 0 29 0 0 0 0 0 
		60 0 23 26 0 0 0 37 0 0 26 0 0 30 0 22 0 0 0 0 0 0 0 0 30 0 0 0 0 0 0 0 0 23 25 0 38 0 0 0 0 0 0 0 0 0 0 20 0 0 0 0 35 0 0 0 0 0 0 39 0 0 0 0 0 0 0 0 0 0 0 0 32 0 0 0 0 0 0 0 0 0 
		61 0 0 0 0 0 0 0 0 0 0 0 0 0 0 0 0 0 0 0 38 0 0 33 0 0 0 0 0 0 21 0 0 0 0 0 33 0 39 0 0 0 0 0 0 40 0 0 0 0 0 0 0 0 0 0 0 0 0 0 0 0 0 0 0 22 0 0 0 0 0 0 0 0 0 0 0 0 0 0 0 0 
		62 0 24 0 25 0 0 0 0 0 0 0 35 0 0 40 0 21 0 0 0 0 0 0 0 0 0 0 0 31 0 0 0 0 0 0 0 0 0 0 0 0 0 0 28 0 0 0 0 40 0 0 0 0 0 0 0 0 0 0 0 0 0 0 0 0 0 23 21 0 30 0 31 0 28 40 0 0 0 0 36 0 
		63 0 0 0 0 0 0 0 0 0 0 0 0 0 0 0 0 0 0 0 0 0 0 0 0 0 0 0 0 0 40 0 0 0 0 0 34 0 0 0 27 0 0 0 0 0 0 0 0 0 28 0 0 0 0 0 0 33 0 0 0 0 0 0 0 36 0 0 0 0 0 21 0 0 0 33 0 0 0 0 0 0 
		64 0 0 0 0 37 0 0 0 0 0 0 0 0 0 23 0 0 0 0 31 0 0 0 0 0 0 0 0 0 0 0 0 0 0 0 0 35 0 37 0 0 0 0 0 0 0 0 0 0 0 0 0 0 0 0 0 0 20 0 0 0 22 0 36 0 24 0 0 0 0 0 0 0 0 0 0 0 0 0 0 0 
		65 0 0 0 0 0 0 0 0 0 0 0 28 0 0 0 0 0 0 0 29 0 0 31 0 0 0 0 0 0 26 23 0 0 0 0 0 0 0 0 0 0 0 0 0 0 25 0 21 39 30 34 0 0 0 0 0 0 0 0 0 0 0 0 0 24 0 0 0 0 0 0 0 0 0 0 0 0 0 0 0 0 
		66 0 0 29 0 0 0 0 0 36 0 0 0 23 0 21 21 0 0 0 29 0 0 29 0 0 0 0 0 0 0 0 0 0 0 0 0 0 0 0 0 0 0 31 0 0 0 0 32 0 0 0 0 0 38 36 0 0 0 25 0 0 0 23 0 0 0 0 33 0 0 0 0 0 0 0 0 0 29 0 30 0 
		67 0 0 0 0 21 0 0 0 0 33 21 0 39 0 0 0 0 0 0 0 0 0 0 0 0 0 0 0 0 0 0 0 0 0 0 0 0 0 0 0 0 0 0 0 0 0 0 0 0 0 0 0 0 0 0 0 0 0 0 0 0 0 21 0 0 0 33 0 0 0 0 0 0 0 0 0 0 0 0 0 0 
		68 0 0 0 0 0 0 0 0 0 0 28 0 0 0 0 0 0 0 0 0 35 0 38 0 0 0 0 0 0 0 0 0 0 0 0 0 39 34 0 0 0 29 0 0 0 0 32 29 0 0 0 0 0 0 0 0 0 0 0 0 0 0 0 0 0 0 0 0 0 0 0 0 0 0 0 0 0 0 30 0 0 
		69 0 0 24 34 0 0 0 0 0 0 24 0 0 0 0 0 0 0 0 0 0 0 0 0 0 0 34 0 0 0 0 0 0 0 0 36 0 20 0 0 0 0 0 0 0 0 0 0 0 37 39 0 25 0 0 0 0 0 0 0 0 0 30 0 0 0 0 0 0 0 0 0 0 0 36 0 0 0 0 0 0 
		70 0 0 0 0 0 26 0 0 0 0 0 0 0 0 0 0 0 0 0 0 0 0 0 0 0 0 0 0 0 0 0 0 0 0 0 0 0 0 0 0 0 0 0 0 0 0 0 0 0 0 0 0 0 0 0 23 0 0 0 0 0 0 0 21 0 0 0 0 0 0 0 0 0 0 0 0 0 0 40 0 0 
		71 0 0 0 0 0 39 0 0 0 0 0 0 0 0 0 0 0 0 0 0 0 0 0 0 0 0 0 0 0 0 0 0 35 39 0 28 0 0 0 0 0 0 0 0 0 0 0 0 0 0 0 0 0 0 0 0 0 0 0 0 32 0 31 0 0 0 0 0 0 0 0 0 0 0 0 0 0 0 0 0 0 
		72 0 0 0 0 0 0 0 0 0 0 0 0 0 0 0 0 0 0 0 0 0 37 0 0 0 0 0 0 0 38 0 0 0 0 0 0 0 0 0 0 0 0 0 0 0 0 0 0 38 0 0 0 0 0 0 0 0 0 35 0 0 0 0 0 0 0 0 0 0 0 0 0 0 0 0 0 0 0 0 0 0 
		73 27 0 36 29 0 0 0 0 0 0 40 24 0 22 0 0 0 0 0 25 0 0 0 0 0 0 39 0 25 0 0 0 0 0 0 21 0 0 0 0 0 23 0 0 0 0 0 0 0 0 0 0 0 38 0 0 0 0 0 21 0 0 28 0 0 0 0 0 0 0 0 0 0 0 0 0 0 0 0 0 0 
		74 0 0 0 0 0 0 38 0 0 0 0 0 0 0 0 0 0 0 21 0 25 0 0 0 0 0 0 0 0 0 0 0 0 0 38 0 0 0 0 0 0 34 0 0 0 0 0 0 0 0 0 0 0 0 40 0 0 0 0 0 0 0 40 33 0 0 0 0 0 36 0 0 0 0 0 0 0 0 0 0 0 
		75 0 0 0 0 0 0 0 37 0 0 0 0 29 0 0 0 0 0 0 0 0 0 23 0 0 0 0 0 0 0 0 0 0 0 0 20 0 0 0 28 0 0 0 0 0 0 31 0 0 0 0 0 24 0 0 0 0 0 0 29 0 0 0 0 0 0 0 0 0 0 0 0 0 0 0 0 0 28 0 0 0 
		76 36 40 0 0 23 38 39 0 0 0 0 0 0 0 0 0 0 0 0 0 0 0 28 0 0 0 0 25 0 0 20 0 37 0 0 0 0 0 0 0 0 0 0 0 0 0 0 0 0 0 0 0 0 0 0 0 0 0 0 0 0 0 0 0 0 0 0 0 0 0 0 0 0 0 0 0 0 0 0 25 0 
		77 0 0 0 0 35 0 0 0 29 0 0 31 0 0 37 0 0 0 0 0 0 0 0 0 28 0 0 0 0 0 0 36 0 0 0 0 0 0 0 0 0 0 0 0 0 0 0 0 0 0 0 0 0 0 0 0 0 0 0 0 0 0 0 0 0 0 29 0 0 0 0 0 0 0 0 28 0 0 0 0 0 
		78 0 0 0 0 26 37 0 0 0 20 0 0 0 0 0 0 0 0 0 0 0 0 0 27 0 0 0 0 0 0 0 0 34 0 0 0 0 0 0 0 0 0 0 0 25 0 0 0 0 0 0 0 0 0 23 0 25 0 0 0 0 0 0 0 0 0 0 0 30 0 40 0 0 0 0 0 0 0 0 0 37 
		79 0 39 0 0 0 25 0 0 40 0 0 0 0 0 0 0 0 0 35 0 0 20 27 0 0 0 0 0 21 0 0 0 0 0 0 0 0 0 0 21 0 0 0 0 0 0 0 32 0 0 0 27 0 0 0 40 0 0 29 0 0 0 36 0 0 0 30 0 0 0 0 0 0 0 0 0 25 0 0 0 0 
		80 36 27 0 0 0 0 0 0 0 0 0 0 0 31 0 0 26 0 0 24 0 29 0 0 0 0 37 0 0 0 37 0 0 0 0 37 0 0 0 0 0 0 0 0 0 0 0 0 0 0 0 0 0 0 0 0 0 0 0 0 0 0 0 0 0 0 0 0 0 0 0 0 0 0 0 0 0 0 37 0 0 
;
